Optimisation/Report/OptimMethJLB/lesson3F/glp_10_05.dat
data;
param n := 10;
param p1 := 1 41 2 56 3 96 4 1 5 83 6 76 7 36 8 4 9 49 10 88;
param p2 := 1 35 2 39 3 41 4 53 5 31 6 75 7 88 8 55 9 84 10 2;
param d := 1 175 2 266 3 123 4 323 5 545 6 173 7 211 8 405 9 374 10 182;
param HV := 2000;
end;
