Optimisation/Report/OptimMethJLB/lesson3F/glp_10_05.res
Problem:    mathmod1
Rows:       111
Columns:    75 (45 integer, 45 binary)
Non-zeros:  320
Status:     INTEGER OPTIMAL
Objective:  tbar = 649 (MINimum)

   No.   Row name        Activity     Lower bound   Upper bound
------ ------------    ------------- ------------- -------------
     1 tbar                      649                             
     2 exclu1[1,2]               184            56          1959 
     3 exclu1[1,3]               405            96          1959 
     4 exclu1[1,4]              1959             1          1959 
     5 exclu1[1,5]               488            83          1959 
     6 exclu1[1,6]               309            76          1959 
     7 exclu1[1,7]                36            36          1959 
     8 exclu1[1,8]               128             4          1959 
     9 exclu1[1,9]               233            49          1959 
    10 exclu1[1,10]              124            88          1959 
    11 exclu1[2,3]               221            96          1944 
    12 exclu1[2,4]              1775             1          1944 
    13 exclu1[2,5]               304            83          1944 
    14 exclu1[2,6]               125            76          1944 
    15 exclu1[2,7]              1852            36          1944 
    16 exclu1[2,8]              1944             4          1944 
    17 exclu1[2,9]                49            49          1944 
    18 exclu1[2,10]             1940            88          1944 
    19 exclu1[3,4]              1554             1          1904 
    20 exclu1[3,5]                83            83          1904 
    21 exclu1[3,6]              1904            76          1904 
    22 exclu1[3,7]              1631            36          1904 
    23 exclu1[3,8]              1723             4          1904 
    24 exclu1[3,9]              1828            49          1904 
    25 exclu1[3,10]             1719            88          1904 
    26 exclu1[4,5]               529            83          1999 
    27 exclu1[4,6]               350            76          1999 
    28 exclu1[4,7]                77            36          1999 
    29 exclu1[4,8]               169             4          1999 
    30 exclu1[4,9]               274            49          1999 
    31 exclu1[4,10]              165            88          1999 
    32 exclu1[5,6]              1821            76          1917 
    33 exclu1[5,7]              1548            36          1917 
    34 exclu1[5,8]              1640             4          1917 
    35 exclu1[5,9]              1745            49          1917 
    36 exclu1[5,10]             1636            88          1917 
    37 exclu1[6,7]              1727            36          1924 
    38 exclu1[6,8]              1819             4          1924 
    39 exclu1[6,9]              1924            49          1924 
    40 exclu1[6,10]             1815            88          1924 
    41 exclu1[7,8]                92             4          1964 
    42 exclu1[7,9]               197            49          1964 
    43 exclu1[7,10]               88            88          1964 
    44 exclu1[8,9]               105            49          1996 
    45 exclu1[8,10]             1996            88          1996 
    46 exclu1[9,10]             1891            88          1951 
    47 exclu2[1,2]               184            39          1965 
    48 exclu2[1,3]               399            41          1965 
    49 exclu2[1,4]              1965            53          1965 
    50 exclu2[1,5]               472            31          1965 
    51 exclu2[1,6]               345            75          1965 
    52 exclu2[1,7]                88            88          1965 
    53 exclu2[1,8]               145            55          1965 
    54 exclu2[1,9]               270            84          1965 
    55 exclu2[1,10]               90             2          1965 
    56 exclu2[2,3]               215            41          1961 
    57 exclu2[2,4]              1781            53          1961 
    58 exclu2[2,5]               288            31          1961 
    59 exclu2[2,6]               161            75          1961 
    60 exclu2[2,7]              1904            88          1961 
    61 exclu2[2,8]              1961            55          1961 
    62 exclu2[2,9]                86            84          1961 
    63 exclu2[2,10]             1906             2          1961 
    64 exclu2[3,4]              1566            53          1959 
    65 exclu2[3,5]                73            31          1959 
    66 exclu2[3,6]              1946            75          1959 
    67 exclu2[3,7]              1689            88          1959 
    68 exclu2[3,8]              1746            55          1959 
    69 exclu2[3,9]              1871            84          1959 
    70 exclu2[3,10]             1691             2          1959 
    71 exclu2[4,5]               507            31          1947 
    72 exclu2[4,6]               380            75          1947 
    73 exclu2[4,7]               123            88          1947 
    74 exclu2[4,8]               180            55          1947 
    75 exclu2[4,9]               305            84          1947 
    76 exclu2[4,10]              125             2          1947 
    77 exclu2[5,6]              1873            75          1969 
    78 exclu2[5,7]              1616            88          1969 
    79 exclu2[5,8]              1673            55          1969 
    80 exclu2[5,9]              1798            84          1969 
    81 exclu2[5,10]             1618             2          1969 
    82 exclu2[6,7]              1743            88          1925 
    83 exclu2[6,8]              1800            55          1925 
    84 exclu2[6,9]              1925            84          1925 
    85 exclu2[6,10]             1745             2          1925 
    86 exclu2[7,8]                57            55          1912 
    87 exclu2[7,9]               182            84          1912 
    88 exclu2[7,10]                2             2          1912 
    89 exclu2[8,9]               125            84          1945 
    90 exclu2[8,10]             1945             2          1945 
    91 exclu2[9,10]             1820             2          1916 
    92 taskop[1]                  47            35               
    93 taskop[2]                  47            39               
    94 taskop[3]                  41            41               
    95 taskop[4]                  53            53               
    96 taskop[5]                  31            31               
    97 taskop[6]                  83            75               
    98 taskop[7]                  99            88               
    99 taskop[8]                  64            55               
   100 taskop[9]                  84            84               
   101 taskop[10]                 13             2               
   102 tardy[1]                  -89          -175               
   103 tardy[2]                 -266          -266               
   104 tardy[3]                 -123          -123               
   105 tardy[4]                  -54          -323               
   106 tardy[5]                 -545          -545               
   107 tardy[6]                 -173          -173               
   108 tardy[7]                 -177          -211               
   109 tardy[8]                 -234          -405               
   110 tardy[9]                 -359          -374               
   111 tardy[10]                -179          -182               

   No. Column name       Activity     Lower bound   Upper bound
------ ------------    ------------- ------------- -------------
     1 Z[1,2]       *              0             0             1 
     2 Z[1,3]       *              0             0             1 
     3 Z[1,4]       *              1             0             1 
     4 Z[1,5]       *              0             0             1 
     5 Z[1,6]       *              0             0             1 
     6 Z[1,7]       *              0             0             1 
     7 Z[1,8]       *              0             0             1 
     8 Z[1,9]       *              0             0             1 
     9 Z[1,10]      *              0             0             1 
    10 Z[2,3]       *              0             0             1 
    11 Z[2,4]       *              1             0             1 
    12 Z[2,5]       *              0             0             1 
    13 Z[2,6]       *              0             0             1 
    14 Z[2,7]       *              1             0             1 
    15 Z[2,8]       *              1             0             1 
    16 Z[2,9]       *              0             0             1 
    17 Z[2,10]      *              1             0             1 
    18 Z[3,4]       *              1             0             1 
    19 Z[3,5]       *              0             0             1 
    20 Z[3,6]       *              1             0             1 
    21 Z[3,7]       *              1             0             1 
    22 Z[3,8]       *              1             0             1 
    23 Z[3,9]       *              1             0             1 
    24 Z[3,10]      *              1             0             1 
    25 Z[4,5]       *              0             0             1 
    26 Z[4,6]       *              0             0             1 
    27 Z[4,7]       *              0             0             1 
    28 Z[4,8]       *              0             0             1 
    29 Z[4,9]       *              0             0             1 
    30 Z[4,10]      *              0             0             1 
    31 Z[5,6]       *              1             0             1 
    32 Z[5,7]       *              1             0             1 
    33 Z[5,8]       *              1             0             1 
    34 Z[5,9]       *              1             0             1 
    35 Z[5,10]      *              1             0             1 
    36 Z[6,7]       *              1             0             1 
    37 Z[6,8]       *              1             0             1 
    38 Z[6,9]       *              1             0             1 
    39 Z[6,10]      *              1             0             1 
    40 Z[7,8]       *              0             0             1 
    41 Z[7,9]       *              0             0             1 
    42 Z[7,10]      *              0             0             1 
    43 Z[8,9]       *              0             0             1 
    44 Z[8,10]      *              1             0             1 
    45 Z[9,10]      *              1             0             1 
    46 C1[2]                     226            56               
    47 C1[1]                      42            41               
    48 C1[3]                     447            96               
    49 C1[4]                       1             1               
    50 C1[5]                     530            83               
    51 C1[6]                     351            76               
    52 C1[7]                      78            36               
    53 C1[8]                     170             4               
    54 C1[9]                     275            49               
    55 C1[10]                    166            88               
    56 C2[2]                     273                             
    57 C2[1]                      89                             
    58 C2[3]                     488                             
    59 C2[4]                      54                             
    60 C2[5]                     561                             
    61 C2[6]                     434                             
    62 C2[7]                     177                             
    63 C2[8]                     234                             
    64 C2[9]                     359                             
    65 C2[10]                    179                             
    66 T[1]                        0             0               
    67 T[2]                        7             0               
    68 T[3]                      365             0               
    69 T[4]                        0             0               
    70 T[5]                       16             0               
    71 T[6]                      261             0               
    72 T[7]                        0             0               
    73 T[8]                        0             0               
    74 T[9]                        0             0               
    75 T[10]                       0             0               

Integer feasibility conditions:

KKT.PE: max.abs.err = 0.00e+00 on row 0
        max.rel.err = 0.00e+00 on row 0
        High quality

KKT.PB: max.abs.err = 0.00e+00 on row 0
        max.rel.err = 0.00e+00 on row 0
        High quality

End of output
